!wB97X-D3 RIJCOSX def2-TZVP def2/J TightSCF TightOpt  xyzfile
%base "B"

*xyzfile 0 1 Binit.xyz
%MaxCore 64000
%scf
 MaxIter 150
end
%pal nprocs 18
end
%geom
 Calc_Hess true 
 Recalc_Hess 5
end
%geom
 MaxIter 250
 Constraints
 {B 2 34 C}
 {B 30 35 C}
 {B 30 36 C}
 {B 31 32 C}
 {B 31 33 C}
 end
end
