memory 2GB

molecule mol {
1 1
  N    0.42884350282670      0.32140231760796     -1.65531186167186 
  H    0.74857790009701     -0.40054183926203     -1.00134487477587 
  H   -0.46105263517042      0.02333186663155     -2.07773134077319 
  H    0.31025846368939      1.20137465907452     -1.13494757511439 
--
-1 1
  S   -1.32860842874695      0.14673726998850     -4.43578091160516 
  O   -2.57134655786555      0.47573265118081     -5.06834105605282 
  O   -1.51496290436282     -0.40051214725120     -3.06342020389925 
  O   -0.37792840161595     -0.62755777872401     -5.20114102733324 
--
0 1
  C    1.36401379286593      0.46874177898203     -2.81376379847671 
  C    0.96804515216561      1.63063857620477     -3.71574907816083 
  C   -0.50834729052918      1.72267873668430     -4.12429969986748 
  H   -0.59151056585997      2.29495774295438     -5.04721886464200 
  H   -1.11411394138300      2.23561047384228     -3.37436176875138 
  H    1.29484732563869     -0.46874190878321     -3.36468447056886 
  H    2.37621566682840      0.59740011523247     -2.43149458961128 
  H    1.57868832007079      1.52065248862023     -4.61273308140539 
  H    1.26665260135133      2.57598799701663     -3.25044779729026 

symmetry c1
no_reorient
no_com
}

# => Standard Options <= #

set {
basis aug-cc-pvtz
scf_type df
guess sad
freeze_core true
fisapt_do_plot false  # For extra analysis
}

energy('fisapt0')
