memory 2GB

molecule mol {
1 1
  N     -3.176900   -0.159484    1.610700 
  H     -4.064736    0.231272    1.286754 
  H     -3.344073   -0.671511    2.484928 
  H     -2.716861   -0.781886    0.935880 
--
-1 1
  O     -1.712061   -1.376836    0.202535 
--
0 1
  C     -2.120502    0.885196    1.789506 
  C     -0.778939    0.171966    1.804965 
  H     -2.324193    1.472649    2.686078 
  H     -2.187698    1.541272    0.919482 
  H      0.015695    0.910767    1.939153 
  H     -0.743553   -0.506827    2.665420 
  C     -0.602493   -0.630712    0.492240 
  H      0.313894   -1.240346    0.603498 
  H     -0.363829    0.113322   -0.301169 

symmetry c1
no_reorient
no_com
}

# => Standard Options <= #

set {
basis aug-cc-pvtz
scf_type df
guess sad
freeze_core true
fisapt_do_plot false  # For extra analysis
}

energy('fisapt0')
