memory 2GB

molecule mol {
1 1
  N      0.680528    4.614820   -4.048005 
  H      0.699926    5.584890   -4.388272 
  H      1.278044    4.055977   -4.668235 
  H      1.085729    4.533581   -3.106524 
--
-1 1
  O      1.565248    4.233493   -1.864885 
--
0 1
  C     -0.701686    4.072499   -4.003920 
  C      1.444422    5.266576   -0.975463 
  C     -1.703475    5.093197   -3.477396 
  H     -0.995895    3.740394   -5.000654 
  H     -0.643580    3.201910   -3.351533 
  C     -1.313997    5.785995   -2.169271 
  H     -1.877057    5.850103   -4.251154 
  H     -2.653264    4.564475   -3.354796 
  H     -2.097137    6.509395   -1.929558 
  H     -0.416875    6.387594   -2.339097 
  C     -1.073895    4.844728   -0.979904 
  H     -1.968893    4.809608   -0.352568 
  C      0.148120    5.210874   -0.138092 
  H     -0.909754    3.827531   -1.338975 
  H      1.474250    6.264638   -1.476917 
  H      2.289622    5.303267   -0.264450 
  H      0.261827    4.450942    0.640711 
  H     -0.002516    6.171031    0.371483 

symmetry c1
no_reorient
no_com
}

# => Standard Options <= #

set {
basis aug-cc-pvtz
scf_type df
guess sad
freeze_core true
fisapt_do_plot false  # For extra analysis
}

energy('fisapt0')
