!LC-BLYP RIJCOSX def2-SVP def2/J TightSCF
*xyz 0 1 
C          0.81607       -2.10149       -2.18655
H          1.69623       -2.36869       -1.60046
C          1.10055       -2.46749       -3.59927
C          0.51624       -0.61363       -2.03937
H         -0.02007       -2.71285       -1.84084
H          1.70061       -1.75723       -4.07838
H          0.29386       -2.35977       -4.25632
H          1.50132       -3.42848       -3.69491
H         -0.34841       -0.36504       -2.61858
H          1.35358       -0.04503       -2.38643
H          0.33317       -0.38682       -1.00984
*
%MaxCore 64000

%pal nprocs 4
end  

%scf
  MaxIter 150
end

