!wB97X-D3 RIJCOSX def2-SVPD def2/J TightSCF CPCM(Water)
* xyz 0 1
C         -7.35500        1.67300        1.69600 
C         -8.58000        2.23900        0.91700 
C         -9.05400        3.62500        1.44000 
C         -7.97200        4.66700        1.33200 
O         -7.89100        5.32200        0.26000 
F         -7.19600        4.83900        2.31300 
H         -8.35300        2.32300       -0.15800 
H         -9.42800        1.54200        1.03400 
H         -9.91600        3.96200        0.83900 
H         -9.38500        3.56000        2.49000 
H         -7.08111        0.72248        1.28808 
H         -7.61121        1.55759        2.72844 
H         -6.53146        2.35024        1.60643 
*
%MaxCore 64000
%scf
  Convergence VeryTight
  MaxIter 400
end
%pal nprocs 4 
end
