!BLYP D3BJ RIJCOSX def2-SVPD def2/J TightSCF 
*xyz 0 1
C          2.09343        1.86104       -4.65684
S          1.87964        0.07859       -4.46297
F          3.20757       -0.46611       -4.42026
O          1.07506       -0.05616       -3.26876
O          1.13166       -0.31996       -5.67903
H          2.68437        2.05681       -5.52711
H          2.58708        2.25699       -3.79404
H          1.13553        2.32556       -4.76426
*

%MaxCore 64000

%pal nprocs 8
end  

%scf
  MaxIter 150
end

