!wB97X-D3 def2-SVPD TightSCF RIJCOSX def2/J CPCM(Water)
* xyz 0 1
C         -1.64100       -2.93200        1.96300 
C         -1.84700       -4.31900        1.34200 
O         -1.14400       -5.24800        1.74200 
N         -2.75300       -4.48100        0.36000 
C         -3.02400       -5.79100       -0.26900 
C         -1.79600       -6.42700       -0.93700 
O         -1.71900       -7.64800       -1.03000 
C         -4.22400       -5.69700       -1.23200 
H         -3.32100       -3.67500        0.09700 
H         -3.30900       -6.47800        0.52900 
N         -0.82800       -5.60700       -1.35500 
C          0.46600       -6.01600       -1.90500 
C          1.48100       -6.46400       -0.83200 
O          2.54500       -6.97100       -1.19400 
C          1.03300       -4.83900       -2.72400 
C          0.67200       -4.90600       -4.21000 
F         -0.53200       -5.05100       -4.52200 
O          1.62700       -4.81500       -5.01700 
H         -1.01000       -4.61600       -1.29100 
H          0.31900       -6.86700       -2.57400 
H          0.64400       -3.92400       -2.32000 
H          2.11600       -4.83700       -2.65000 
N          1.18500       -6.27800        0.46400 
C          2.06000       -6.61800        1.59300 
H          0.26500       -5.90800        0.69300 
H          2.99083       -6.99358        1.22233 
H          1.58897       -7.36524        2.19688 
H          2.23785       -5.74295        2.18254 
H         -3.98630       -5.02976       -2.03399 
H         -5.07797       -5.32871       -0.70284 
H         -4.44069       -6.66727       -1.62761 
H         -2.31988       -2.23646        1.51551 
H         -0.63528       -2.60988        1.79073 
H         -1.82410       -2.98192        3.01603 
*
%MaxCore 64000
%pal nprocs 8
end
%scf
  Convergence VeryTight
  MaxIter 150
end
