!wB97X-D3 def2-SVPD TightSCF RIJCOSX def2/J CPCM(Water)
* xyz 0 1
C          6.11000       -0.24300       -2.99400 
C          5.04600       -1.17100       -2.37800 
C          3.92300       -1.59200       -3.33800 
N          4.25100       -2.81100       -4.10000 
C          4.85900       -2.91400       -5.27400 
C          5.28900       -1.86400       -5.93700 
N          5.03500       -4.09500       -5.80900 
H          5.53800       -2.05900       -2.03100 
H          4.57900       -0.65200       -1.54900 
H          3.03300       -1.77400       -2.76600 
H          3.66900       -0.76500       -4.00300 
H          3.96300       -3.69400       -3.69800 
H          5.15000       -0.96200       -5.52100 
H          5.76100       -1.96200       -6.81500 
H          4.64900       -4.89400       -5.32700 
H          5.50800       -4.20500       -6.68400 
H          6.58307       -0.73884       -3.81574 
H          6.84347       -0.00050       -2.25365 
H          5.64256        0.65496       -3.34051 
*
%MaxCore 64000
%pal nprocs 8
end
%scf
  Convergence VeryTight
  MaxIter 150
end
